sys.path.insert(0, './..')
import ugacc

molecule {
0 1
N
N 1 1.09768
no_reorient
no_com
}

set {
  basis STO-3G
  freeze_core true
  r_convergence 1e-15
  e_convergence 1e-15
  ooc true
  maxiter 100
}

#property('ccsd', properties=['polarizability'])
energy('ugacc', wfn='ccsd')


