molecule {
0 1
    O         0.000000000000     0.000000000000    -0.116529192243
    H        -0.000000000000     1.344767972762     0.924701422022
    F        -0.000000000000    -1.344767972762     0.924701422022
no_reorient
no_com
units bohr
symmetry c1
}

set {
  reference uhf
  basis sto-3g
  freeze_core false
  r_convergence 1e-15
}

gradient('ccsd')


